1,32.00,61.00,90.00,10.00,1,1,1,448,505
2,33.00,60.00,90.00,10.00,1,1,1,448,505
3,42.00,51.00,90.00,10.00,1,1,1,448,505
4,73.00,60.00,90.00,10.00,1,1,1,448,505
5,40.00,10.00,90.00,10.00,1,1,1,448,505
